
  32    4
  10   10   10   10

   0   0   0   0   0   3 2 30 31 
   7   1   1   0   1   2 29 3 
   2   2   7   0  10   1 4 
   6   7   4   0   3   2 28 5 
   8   0   5   1   3   2 27 6 
   6   0   1   3   4   1 7 
   2   0   4   3   4   1 8 
   1   3   4   3   0   1 9 
   1   2   2   3   0   3 26 25 10 
   1   5   2   5   0   1 11 
   1   4   0   6   4   2 24 12 
   7   6   0   3   1   1 13 
   9   4   9   4   0   2 23 14 
   5   4   3   0   5   1 15 
   2   4   6   4   0   1 16 
   7   0   6   7   3   1 17 
   8   4   2   0   6   1 18 
   7   0   3   2   4   1 19 
   1   3   0   6   3   1 20 
   7   0   7   3   3   1 21 
   5   0   6   4   1   1 22 
  10   0   4   3   4   1 32
   5   2   2   7   0   1 32
   9   5   4   0   6   1 32
   4   0   4   4   5   1 32
   8   5   4   0   5   1 32
  10   5   3   0   5   1 32
   7   8   0   4   4   1 32
  10   3   3   5   0   1 32
   9   4   0   4   7   1 32
   2   3   0   4   1   1 32
   0   0   0   0   0   0 
